n_res = 4;
rc = [ 40, 38, 33, 49 ];
n_tasks = 60;
d = [ 2, 4, 8, 1, 6, 5, 2, 10, 10, 7, 9, 2, 10, 10, 1, 10, 1, 10, 2, 10, 2, 9, 2, 10, 3, 1, 7, 8, 6, 6, 6, 9, 4, 1, 1, 8, 2, 4, 8, 9, 8, 9, 3, 6, 8, 7, 7, 1, 4, 1, 2, 2, 3, 9, 6, 8, 3, 4, 1, 1 ];
rr = [| 9, 3, 0, 9, 0, 4, 0, 1, 8, 7, 0, 0, 0, 2, 1, 2, 0, 0, 3, 8, 5, 10, 2, 9, 0, 6, 2, 0, 7, 7, 0, 7, 3, 0, 3, 4, 6, 3, 7, 4, 9, 6, 1, 7, 1, 10, 0, 0, 5, 4, 7, 5, 5, 7, 1, 5, 7, 0, 9, 10
      | 0, 7, 8, 7, 6, 6, 6, 2, 2, 0, 8, 5, 3, 4, 9, 6, 0, 2, 0, 0, 0, 0, 6, 10, 0, 0, 5, 5, 1, 5, 0, 3, 7, 0, 9, 10, 2, 6, 1, 8, 2, 9, 4, 0, 2, 9, 10, 7, 4, 2, 3, 7, 2, 5, 5, 0, 6, 6, 2, 7
      | 5, 1, 1, 3, 0, 10, 2, 0, 0, 0, 4, 6, 4, 8, 0, 0, 4, 0, 6, 10, 9, 10, 3, 0, 3, 8, 6, 1, 3, 0, 5, 0, 9, 8, 4, 2, 3, 0, 0, 9, 1, 3, 6, 6, 0, 7, 0, 4, 0, 3, 9, 9, 2, 2, 10, 6, 2, 0, 6, 0
      | 1, 0, 6, 0, 4, 4, 7, 5, 7, 7, 0, 2, 2, 10, 1, 0, 4, 10, 0, 0, 3, 8, 3, 0, 4, 10, 8, 0, 9, 0, 9, 1, 6, 1, 2, 1, 5, 0, 0, 0, 6, 7, 5, 9, 4, 10, 10, 10, 8, 0, 10, 8, 10, 1, 1, 0, 9, 7, 1, 2 |];
suc = [ { 8, 9, 14 },
       { 4, 53 },
       { 5, 6, 9 },
       { 16, 30, 40 },
       { 7, 11, 28 },
       { 13, 24, 37 },
       { 51 },
       { 10, 15, 20 },
       { 12, 23, 36 },
       { 16, 45 },
       { 17, 29, 39 },
       { 25, 28, 33 },
       { 15 },
       { 55 },
       { 19, 22, 56 },
       { 18, 27, 50 },
       { 21, 33, 38 },
       { 19, 48 },
       { 31, 49, 52 },
       { 41, 47, 53 },
       { 35 },
       { 26, 32 },
       { 47, 53, 54 },
       { 29, 43, 52 },
       { 34, 46 },
       { 46 },
       { 33, 46 },
       { 40, 42 },
       { 31, 34 },
       { 42, 45 },
       { 36, 42 },
       { 41 },
       { 35 },
       { 35 },
       { 58 },
       { 55 },
       { 44, 54, 57 },
       { 45 },
       { 44, 57 },
       { 54, 57 },
       { 48, 49, 50 },
       { 59 },
       { 47 },
       { 50, 56 },
       { 59 },
       { 51 },
       { 49 },
       { 51 },
       { 60 },
       { 59 },
       { 52 },
       { 60 },
       { 55 },
       { 56 },
       { 60 },
       { 58 },
       { 58 },
       {  },
       {  },
       {  } ];
